
******************************************************************************
This program contains Ipopt, a library for large-scale nonlinear optimization.
 Ipopt is released as open source code under the Eclipse Public License (EPL).
         For more information visit https://github.com/coin-or/Ipopt
******************************************************************************

This is Ipopt version 3.14.19, running with linear solver MUMPS 5.8.1.

Number of nonzeros in equality constraint Jacobian...:     4389
Number of nonzeros in inequality constraint Jacobian.:        0
Number of nonzeros in Lagrangian Hessian.............:     1050

Total number of variables............................:     1287
                     variables with only lower bounds:        0
                variables with lower and upper bounds:      457
                     variables with only upper bounds:        0
Total number of equality constraints.................:     1274
Total number of inequality constraints...............:        0
        inequality constraints with only lower bounds:        0
   inequality constraints with lower and upper bounds:        0
        inequality constraints with only upper bounds:        0

iter    objective    inf_pr   inf_du lg(mu)  ||d||  lg(rg) alpha_du alpha_pr  ls
   0  9.8487368e+00 9.90e+01 1.95e-04  -1.0 0.00e+00    -  0.00e+00 0.00e+00   0
   1  9.9819055e+00 6.69e+01 2.99e+01  -1.0 9.84e+01    -  3.15e-02 1.00e+00h  1
   2  9.9350399e+00 1.04e+01 2.57e+00  -1.0 2.98e+01    -  7.31e-01 1.00e+00h  1
   3  9.9382628e+00 2.07e-01 2.51e-01  -1.0 7.01e+00    -  8.38e-01 1.00e+00h  1
   4  1.0144475e+01 1.03e+01 5.50e-02  -1.0 4.83e+00    -  9.90e-01 1.00e+00f  1
   5  1.0480662e+01 1.02e+01 1.84e-02  -1.0 3.88e+00    -  1.00e+00 1.00e+00h  1
   6  1.0401871e+01 5.48e-01 6.63e-04  -1.0 1.49e+00    -  1.00e+00 1.00e+00h  1
   7  1.0116838e+01 7.95e-01 1.63e+00  -1.7 2.59e+00    -  6.29e-01 1.00e+00h  1
   8  9.9354375e+00 2.06e+00 1.57e-02  -1.7 2.07e+00    -  1.00e+00 1.00e+00h  1
   9  9.9159782e+00 2.77e-01 2.59e-04  -1.7 1.89e+00    -  1.00e+00 1.00e+00h  1
iter    objective    inf_pr   inf_du lg(mu)  ||d||  lg(rg) alpha_du alpha_pr  ls
  10  9.9158893e+00 1.02e-04 5.33e-08  -1.7 2.46e-01    -  1.00e+00 1.00e+00h  1
  11  9.8558613e+00 1.25e+01 8.40e-01  -3.8 6.97e+00    -  8.19e-01 1.00e+00f  1
  12  9.8529395e+00 3.80e+00 4.00e-04  -3.8 2.15e+01    -  1.00e+00 1.00e+00h  1
  13  9.8521118e+00 2.09e-02 1.29e-02  -3.8 4.51e+00    -  7.91e-01 1.00e+00h  1
  14  9.8502786e+00 9.22e-04 1.71e-04  -3.8 8.25e-01    -  1.00e+00 1.00e+00h  1
  15  9.8486651e+00 2.95e-04 1.29e-02  -5.7 7.50e-01    -  6.51e-01 1.00e+00h  1
  16  9.8480485e+00 1.18e-04 2.18e-03  -5.7 3.53e-01    -  9.66e-01 8.32e-01h  1
  17  9.8479267e+00 1.74e-05 2.73e-04  -5.7 2.64e-01    -  1.00e+00 8.72e-01h  1
  18  9.8479258e+00 1.45e-05 1.22e-03  -5.7 1.10e-01    -  5.17e-01 1.69e-01f  2
  19  9.8479146e+00 4.22e-08 6.92e-09  -5.7 6.66e-03    -  1.00e+00 1.00e+00h  1
iter    objective    inf_pr   inf_du lg(mu)  ||d||  lg(rg) alpha_du alpha_pr  ls
  20  9.8479013e+00 2.07e-08 2.23e-03  -8.6 2.87e-02    -  9.39e-01 4.16e-01h  1
  21  9.8479008e+00 9.14e-09 3.66e-03  -8.6 4.28e-04    -  1.00e+00 5.58e-01h  1
  22  9.8479008e+00 8.53e-14 7.61e-15  -8.6 1.14e-06    -  1.00e+00 1.00e+00f  1

Number of Iterations....: 22

                                   (scaled)                 (unscaled)
Objective...............:   9.8479007832829542e+00    9.8479007832829542e+00
Dual infeasibility......:   7.6050277186823223e-15    7.6050277186823223e-15
Constraint violation....:   8.5265128295892037e-14    8.5265128295892037e-14
Variable bound violation:   0.0000000000000000e+00    0.0000000000000000e+00
Complementarity.........:   2.5303457598826315e-09    2.5303457598826315e-09
Overall NLP error.......:   2.5303457598826315e-09    2.5303457598826315e-09


Number of objective function evaluations             = 24
Number of objective gradient evaluations             = 23
Number of equality constraint evaluations            = 24
Number of inequality constraint evaluations          = 0
Number of equality constraint Jacobian evaluations   = 23
Number of inequality constraint Jacobian evaluations = 0
Number of Lagrangian Hessian evaluations             = 22
Total seconds in IPOPT                               = 0.096

EXIT: Optimal Solution Found.
